(set-logic ALL)
(declare-fun seed0_headerkey () String)
(assert (and (or (and (and (and (and (and (and (and (and (and (and (and (and (and (and (and (and (and (and (and (and (and (and (and (not (= (ite (str.contains seed0_headerkey "Y") 1 0) 0)) (= (ite (str.contains seed0_headerkey "X") 1 0) 0)) (= (ite (str.contains seed0_headerkey "W") 1 0) 0)) (= (ite (str.contains seed0_headerkey "V") 1 0) 0)) (= (ite (str.contains seed0_headerkey "U") 1 0) 0)) (= (ite (str.contains seed0_headerkey "T") 1 0) 0)) (= (ite (str.contains seed0_headerkey "S") 1 0) 0)) (= (ite (str.contains seed0_headerkey "R") 1 0) 0)) (= (ite (str.contains seed0_headerkey "Q") 1 0) 0)) (= (ite (str.contains seed0_headerkey "P") 1 0) 0)) (= (ite (str.contains seed0_headerkey "O") 1 0) 0)) (= (ite (str.contains seed0_headerkey "N") 1 0) 0)) (= (ite (str.contains seed0_headerkey "M") 1 0) 0)) (= (ite (str.contains seed0_headerkey "L") 1 0) 0)) (= (ite (str.contains seed0_headerkey "K") 1 0) 0)) (= (ite (str.contains seed0_headerkey "J") 1 0) 0)) (= (ite (str.contains seed0_headerkey "I") 1 0) 0)) (= (ite (str.contains seed0_headerkey "H") 1 0) 0)) (= (ite (str.contains seed0_headerkey "G") 1 0) 0)) (= (ite (str.contains seed0_headerkey "F") 1 0) 0)) (= (ite (str.contains seed0_headerkey "E") 1 0) 0)) (= (ite (str.contains seed0_headerkey "D") 1 0) 0)) (= (ite (str.contains seed0_headerkey "C") 1 0) 0)) (= (ite (str.contains seed0_headerkey "B") 1 0) 0)) (not (str.suffixof (str.++ seed0_headerkey "wKX7HxG") (str.++ seed0_headerkey "hi0wNeLmaTKJbAjZgfXu")))) (or (= (ite (str.contains seed0_headerkey "A") 1 0) 0) (and (str.suffixof (str.++ seed0_headerkey "Yr9wxLbE") (str.++ seed0_headerkey "FSEDWRMP23uZyxwg1n")) (str.contains (str.++ seed0_headerkey "oNarHUCIR2LS9lE3q") (str.++ seed0_headerkey "V1pxl0dKetPrMU4iBwf"))))))
(check-sat)
(exit)